10	6	3.15
2 4 1 9 3 8 4 3 5 7 2 2 6 5 4
2 4 2 7 4 7 5 2 6 4 5 1 9 2 3 4 2 5 2 6 8
2 5 1 8 2 5 3 3 4 8 6 8 1 1 4
2 1 4 2 2 2 5 4 6
2 3 1 3 2 6 5 7 2 3 5 6 1
2 4 1 8 4 1 5 3 6 2 1 2 8
2 6 1 7 2 2 3 2 4 2 5 8 6 3 5 1 2 2 6 3 9 5 6 6 9
2 2 1 5 3 9 5 1 5 3 8 4 4 5 7 6 8
2 2 1 9 2 1 4 1 2 3 7 4 7 6 3
2 3 3 8 5 7 6 4 2 4 5 6 1
